% MIT License
%
% Copyright (c) 2021 Johan Ludde Wessén
%
% Permission is hereby granted, free of charge, to any person obtaining 
% a copy of this software and associated documentation files (the "Software"),
% to deal in the Software without restriction, including without limitation 
% the rights to use, copy, modify, merge, publish, distribute, sublicense, 
% and/or sell copies of the Software, and to permit persons to whom the 
% Software is furnished to do so, subject to the following conditions:
% 
% The above copyright notice and this permission notice shall be included 
% in all copies or substantial portions of the Software.
%
% THE SOFTWARE IS PROVIDED "AS IS", WITHOUT WARRANTY OF ANY KIND, 
% EXPRESS OR IMPLIED, INCLUDING BUT NOT LIMITED TO THE WARRANTIES OF
% MERCHANTABILITY, FITNESS FOR A PARTICULAR PURPOSE AND
% NONINFRINGEMENT. IN NO EVENT SHALL THE AUTHORS OR COPYRIGHT HOLDERS BE
% LIABLE FOR ANY CLAIM, DAMAGES OR OTHER LIABILITY, WHETHER IN AN ACTION
% OF CONTRACT, TORT OR OTHERWISE, ARISING FROM, OUT OF OR IN CONNECTION
% WITH THE SOFTWARE OR THE USE OR OTHER DEALINGS IN THE SOFTWARE.


%-----------------------------------------------------------------------------%
% Dual Arm Multi Capacity Multi Tool Scheduling / Routing
% YuMi + Workspace Configuration
% Auto Generated by python scrip, authored by Ludde Wessen
%-----------------------------------------------------------------------------%


%                           Tray 1,   Tray 2,   Tray 3,   Tray 4,   Tray 5,   Tray 6,   Tray 7,   Tray 8,   Tray 9,   Tray10,   Tray11,   Tray12, Camera 1, Camera 2, Camera 3, Camera 4, Camera 5, Camera 6, Camera 7, Camera 8, Camera 9, Camera10, Camera11,  Camera12,Fixture 1,Fixture 2,Fixture 3, AirGun 1, Output 1,
%                                1,        2,        3,        4,        5,        6,        7,        8,        9,       10,       11,       12,       13,       14,       15,       16,       17,       18,       19,       20,       21,       22,       23,        24,       25,       26,       27,       28,       29,
wait_zones_left_data  = [     {  },     {  },     {  }, { 3, 6 },    { 4 },     {  }, { 9, 6 }, { 9, 7 },{ 8, 10 },    { 9 },{ 9, 10 },{ 10, 11 },    {  },     {  },     {  },     {  },    { 4 },    { 5 }, { 9, 6 },{ 10, 7 },{ 8, 10 },    { 9 },   { 10 },{ 10, 11 }, { 9, 6 }, { 9, 6 },    { 6 },   { 10 },      {  }];
wait_zones_right_data = [    { 0 }, { 0, 1 }, { 1, 2 }, { 0, 3 }, { 0, 4 }, { 1, 5 }, { 3, 6 },    { 7 },     {  },     {  },     {  },     {  },    { 0 },    { 1 }, { 1, 2 }, { 0, 3 }, { 1, 4 }, { 1, 5 },     {  },    { 7 },    { 8 },     {  },     {  },      {  }, { 0, 3 }, { 0, 3 },    { 3 },     {  },     { 1 }];
work_zones_left_data  = [     {  },     {  },     {  }, { 3, 6 },    { 4 },     {  }, { 9, 6 }, { 9, 7 },{ 8, 10 },    { 9 },{ 9, 10 },{ 10, 11 },    {  },     {  },     {  },     {  },    { 4 },    { 5 }, { 9, 6 },{ 10, 7 },{ 8, 10 },    { 9 },   { 10 },{ 10, 11 },{ 12, 6 },{ 13, 6 },   { 14 },   { 10 },      {  }];
work_zones_right_data = [    { 0 }, { 0, 1 }, { 1, 2 }, { 0, 3 }, { 0, 4 }, { 1, 5 }, { 3, 6 },    { 7 },     {  },     {  },     {  },     {  },    { 0 },    { 1 }, { 1, 2 }, { 0, 3 }, { 1, 4 }, { 1, 5 },     {  },    { 7 },    { 8 },     {  },     {  },      {  },{ 3, 12 },{ 3, 13 },   { 14 },     {  },     { 1 }];

travel_zones_left_data = [|
           { },          { },          { },          { },          { },          { },          { },          { },          { },          { },          { },          { },          { },          { },          { },          { },          { },          { },          { },          { },          { },          { },          { },          { },          { },          { },          { },          { },          { }
 |         { },          { },          { },          { },          { },          { },          { },          { },          { },          { },          { },          { },          { },          { },          { },          { },          { },          { },          { },          { },          { },          { },          { },          { },          { },          { },          { },          { },          { }
 |         { },          { },          { },          { },          { },          { },          { },          { },          { },          { },          { },          { },          { },          { },          { },          { },          { },          { },          { },          { },          { },          { },          { },          { },          { },          { },          { },          { },          { }
 |         { },          { },          { },       {3, 6},    {3, 4, 6},          { },    {9, 3, 6}, {9, 3, 6, 7}, {8, 10, 3, 6},    {9, 3, 6}, {9, 10, 3, 6}, {11, 10, 3, 6},          { },          { },          { },          { },    {3, 4, 6},    {3, 5, 6},    {9, 3, 6}, {10, 3, 6, 7}, {8, 10, 3, 6},    {9, 3, 6},    {10, 3, 6}, {11, 10, 3, 6},    {9, 3, 6},    {9, 3, 6},       {3, 6},    {10, 3, 6},          { }
 |         { },          { },          { },    {3, 4, 6},          {4},          { },    {9, 4, 6},    {9, 4, 7},    {8, 10, 4},       {9, 4},    {9, 10, 4},    {10, 11, 4},          { },          { },          { },          { },          {4},       {4, 5},    {9, 4, 6},    {10, 4, 7},    {8, 10, 4},       {9, 4},       {10, 4},    {10, 11, 4},    {9, 4, 6},    {9, 4, 6},       {4, 6},       {10, 4},          { }
 |         { },          { },          { },          { },          { },          { },          { },          { },          { },          { },          { },          { },          { },          { },          { },          { },          { },          { },          { },          { },          { },          { },          { },          { },          { },          { },          { },          { },          { }
 |         { },          { },          { },    {9, 3, 6},    {9, 4, 6},          { },       {9, 6},    {9, 6, 7}, {8, 9, 10, 6},       {9, 6},    {9, 10, 6}, {9, 10, 11, 6},          { },          { },          { },          { },    {9, 4, 6},    {9, 5, 6},       {9, 6}, {9, 10, 6, 7}, {8, 9, 10, 6},       {9, 6},    {9, 10, 6}, {9, 10, 11, 6},       {9, 6},       {9, 6},       {9, 6},    {9, 10, 6},          { }
 |         { },          { },          { }, {9, 3, 6, 7},    {9, 4, 7},          { },    {9, 6, 7},       {9, 7}, {8, 9, 10, 7},       {9, 7},    {9, 10, 7}, {9, 10, 11, 7},          { },          { },          { },          { },    {9, 4, 7},    {9, 5, 7},    {9, 6, 7},    {9, 10, 7}, {8, 9, 10, 7},       {9, 7},    {9, 10, 7}, {9, 10, 11, 7},    {9, 6, 7},    {9, 6, 7},    {9, 6, 7},    {9, 10, 7},          { }
 |         { },          { },          { }, {8, 10, 3, 6},    {8, 10, 4},          { }, {8, 9, 10, 6}, {8, 9, 10, 7},       {8, 10},    {8, 9, 10},    {8, 9, 10},    {8, 10, 11},          { },          { },          { },          { },    {8, 10, 4},    {8, 10, 5}, {8, 9, 10, 6},    {8, 10, 7},       {8, 10},    {8, 9, 10},       {8, 10},    {8, 10, 11}, {8, 9, 10, 6}, {8, 9, 10, 6},    {8, 10, 6},       {8, 10},          { }
 |         { },          { },          { },    {9, 3, 6},       {9, 4},          { },       {9, 6},       {9, 7},    {8, 9, 10},          {9},       {9, 10},    {9, 10, 11},          { },          { },          { },          { },       {9, 4},       {9, 5},       {9, 6},    {9, 10, 7},    {8, 9, 10},          {9},       {9, 10},    {9, 10, 11},       {9, 6},       {9, 6},       {9, 6},       {9, 10},          { }
 |         { },          { },          { }, {9, 10, 3, 6},    {9, 10, 4},          { },    {9, 10, 6},    {9, 10, 7},    {8, 9, 10},       {9, 10},       {9, 10},    {9, 10, 11},          { },          { },          { },          { },    {9, 10, 4},    {9, 10, 5},    {9, 10, 6},    {9, 10, 7},    {8, 9, 10},       {9, 10},       {9, 10},    {9, 10, 11},    {9, 10, 6},    {9, 10, 6},    {9, 10, 6},       {9, 10},          { }
 |         { },          { },          { }, {3, 10, 11, 6},    {10, 11, 4},          { }, {9, 10, 11, 6}, {9, 10, 11, 7},    {8, 10, 11},    {9, 10, 11},    {9, 10, 11},       {10, 11},          { },          { },          { },          { },    {10, 11, 4},    {10, 11, 5}, {9, 10, 11, 6},    {10, 11, 7},    {8, 10, 11},    {9, 10, 11},       {10, 11},       {10, 11}, {9, 10, 11, 6}, {9, 10, 11, 6},    {10, 11, 6},       {10, 11},          { }
 |         { },          { },          { },          { },          { },          { },          { },          { },          { },          { },          { },          { },          { },          { },          { },          { },          { },          { },          { },          { },          { },          { },          { },          { },          { },          { },          { },          { },          { }
 |         { },          { },          { },          { },          { },          { },          { },          { },          { },          { },          { },          { },          { },          { },          { },          { },          { },          { },          { },          { },          { },          { },          { },          { },          { },          { },          { },          { },          { }
 |         { },          { },          { },          { },          { },          { },          { },          { },          { },          { },          { },          { },          { },          { },          { },          { },          { },          { },          { },          { },          { },          { },          { },          { },          { },          { },          { },          { },          { }
 |         { },          { },          { },          { },          { },          { },          { },          { },          { },          { },          { },          { },          { },          { },          { },          { },          { },          { },          { },          { },          { },          { },          { },          { },          { },          { },          { },          { },          { }
 |         { },          { },          { },    {3, 4, 6},          {4},          { },    {9, 4, 6},    {9, 4, 7},    {8, 10, 4},       {9, 4},    {9, 10, 4},    {10, 11, 4},          { },          { },          { },          { },          {4},       {4, 5},    {9, 4, 6},    {10, 4, 7},    {8, 10, 4},       {9, 4},       {10, 4},    {10, 11, 4},    {9, 4, 6},    {9, 4, 6},       {4, 6},       {10, 4},          { }
 |         { },          { },          { },    {3, 5, 6},       {4, 5},          { },    {9, 5, 6},    {9, 5, 7},    {8, 10, 5},       {9, 5},    {9, 10, 5},    {10, 11, 5},          { },          { },          { },          { },       {4, 5},          {5},    {9, 5, 6},    {10, 5, 7},    {8, 10, 5},       {9, 5},       {10, 5},    {10, 11, 5},    {9, 5, 6},    {9, 5, 6},       {5, 6},       {10, 5},          { }
 |         { },          { },          { },    {9, 3, 6},    {9, 4, 6},          { },       {9, 6},    {9, 6, 7}, {8, 9, 10, 6},       {9, 6},    {9, 10, 6}, {9, 10, 11, 6},          { },          { },          { },          { },    {9, 4, 6},    {9, 5, 6},       {9, 6}, {9, 10, 6, 7}, {8, 9, 10, 6},       {9, 6},    {9, 10, 6}, {9, 10, 11, 6},       {9, 6},       {9, 6},       {9, 6},    {9, 10, 6},          { }
 |         { },          { },          { }, {10, 3, 6, 7},    {10, 4, 7},          { }, {9, 10, 6, 7},    {9, 10, 7},    {8, 10, 7},    {9, 10, 7},    {9, 10, 7},    {10, 11, 7},          { },          { },          { },          { },    {10, 4, 7},    {10, 5, 7}, {9, 10, 6, 7},       {10, 7},    {8, 10, 7},    {9, 10, 7},       {10, 7},    {10, 11, 7}, {9, 10, 6, 7}, {9, 10, 6, 7},    {10, 6, 7},       {10, 7},          { }
 |         { },          { },          { }, {8, 10, 3, 6},    {8, 10, 4},          { }, {8, 9, 10, 6}, {8, 9, 10, 7},       {8, 10},    {8, 9, 10},    {8, 9, 10},    {8, 10, 11},          { },          { },          { },          { },    {8, 10, 4},    {8, 10, 5}, {8, 9, 10, 6},    {8, 10, 7},       {8, 10},    {8, 9, 10},       {8, 10},    {8, 10, 11}, {8, 9, 10, 6}, {8, 9, 10, 6},    {8, 10, 6},       {8, 10},          { }
 |         { },          { },          { },    {9, 3, 6},       {9, 4},          { },       {9, 6},       {9, 7},    {8, 9, 10},          {9},       {9, 10},    {9, 10, 11},          { },          { },          { },          { },       {9, 4},       {9, 5},       {9, 6},    {9, 10, 7},    {8, 9, 10},          {9},       {9, 10},    {9, 10, 11},       {9, 6},       {9, 6},       {9, 6},       {9, 10},          { }
 |         { },          { },          { },    {10, 3, 6},       {10, 4},          { },    {9, 10, 6},    {9, 10, 7},       {8, 10},       {9, 10},       {9, 10},       {10, 11},          { },          { },          { },          { },       {10, 4},       {10, 5},    {9, 10, 6},       {10, 7},       {8, 10},       {9, 10},          {10},       {10, 11},    {9, 10, 6},    {9, 10, 6},       {10, 6},          {10},          { }
 |         { },          { },          { }, {3, 10, 11, 6},    {10, 11, 4},          { }, {9, 10, 11, 6}, {9, 10, 11, 7},    {8, 10, 11},    {9, 10, 11},    {9, 10, 11},       {10, 11},          { },          { },          { },          { },    {10, 11, 4},    {10, 11, 5}, {9, 10, 11, 6},    {10, 11, 7},    {8, 10, 11},    {9, 10, 11},       {10, 11},       {10, 11}, {9, 10, 11, 6}, {9, 10, 11, 6},    {10, 11, 6},       {10, 11},          { }
 |         { },          { },          { },    {9, 3, 6},    {9, 4, 6},          { },       {9, 6},    {9, 6, 7}, {8, 9, 10, 6},       {9, 6},    {9, 10, 6}, {9, 10, 11, 6},          { },          { },          { },          { },    {9, 4, 6},    {9, 5, 6},       {9, 6}, {9, 10, 6, 7}, {8, 9, 10, 6},       {9, 6},    {9, 10, 6}, {9, 10, 11, 6},       {9, 6},       {9, 6},       {9, 6},    {9, 10, 6},          { }
 |         { },          { },          { },    {9, 3, 6},    {9, 4, 6},          { },       {9, 6},    {9, 6, 7}, {8, 9, 10, 6},       {9, 6},    {9, 10, 6}, {9, 10, 11, 6},          { },          { },          { },          { },    {9, 4, 6},    {9, 5, 6},       {9, 6}, {9, 10, 6, 7}, {8, 9, 10, 6},       {9, 6},    {9, 10, 6}, {9, 10, 11, 6},       {9, 6},       {9, 6},       {9, 6},    {9, 10, 6},          { }
 |         { },          { },          { },       {3, 6},       {4, 6},          { },       {9, 6},    {9, 6, 7},    {8, 10, 6},       {9, 6},    {9, 10, 6},    {10, 11, 6},          { },          { },          { },          { },       {4, 6},       {5, 6},       {9, 6},    {10, 6, 7},    {8, 10, 6},       {9, 6},       {10, 6},    {10, 11, 6},       {9, 6},       {9, 6},          {6},       {10, 6},          { }
 |         { },          { },          { },    {10, 3, 6},       {10, 4},          { },    {9, 10, 6},    {9, 10, 7},       {8, 10},       {9, 10},       {9, 10},       {10, 11},          { },          { },          { },          { },       {10, 4},       {10, 5},    {9, 10, 6},       {10, 7},       {8, 10},       {9, 10},          {10},       {10, 11},    {9, 10, 6},    {9, 10, 6},       {10, 6},          {10},          { }
 |         { },          { },          { },          { },          { },          { },          { },          { },          { },          { },          { },          { },          { },          { },          { },          { },          { },          { },          { },          { },          { },          { },          { },          { },          { },          { },          { },          { },          { }
|];


travel_zones_right_data = [|
           {0},       {0, 1},    {0, 1, 2},       {0, 3},       {0, 4},    {0, 1, 5},    {0, 3, 6},       {0, 7},          { },          { },          { },          { },          {0},       {0, 1},    {0, 1, 2},       {0, 3},    {0, 1, 4},    {0, 1, 5},          { },       {0, 7},       {0, 8},          { },          { },          { },       {0, 3},       {0, 3},       {0, 3},          { },       {0, 1}
 |      {0, 1},       {0, 1},    {0, 1, 2},    {0, 1, 3},    {0, 1, 4},    {0, 1, 5}, {0, 1, 3, 6},    {0, 1, 7},          { },          { },          { },          { },       {0, 1},       {0, 1},    {0, 1, 2},    {0, 1, 3},    {0, 1, 4},    {0, 1, 5},          { },    {0, 1, 7},    {0, 1, 8},          { },          { },          { },    {0, 1, 3},    {0, 1, 3},    {0, 1, 3},          { },       {0, 1}
 |   {0, 1, 2},    {0, 1, 2},       {1, 2}, {0, 1, 2, 3}, {0, 1, 2, 4},    {1, 2, 5}, {1, 2, 3, 6},    {1, 2, 7},          { },          { },          { },          { },    {0, 1, 2},       {1, 2},       {1, 2}, {0, 1, 2, 3},    {1, 2, 4},    {1, 2, 5},          { },    {1, 2, 7},    {8, 1, 2},          { },          { },          { }, {0, 1, 2, 3}, {0, 1, 2, 3},    {1, 2, 3},          { },       {1, 2}
 |      {0, 3},    {0, 1, 3}, {0, 1, 2, 3},       {0, 3},    {0, 3, 4}, {0, 1, 3, 5},    {0, 3, 6},    {0, 3, 7},          { },          { },          { },          { },       {0, 3},    {0, 1, 3}, {0, 1, 2, 3},       {0, 3}, {0, 1, 3, 4}, {0, 1, 3, 5},          { },    {0, 3, 7},    {0, 8, 3},          { },          { },          { },       {0, 3},       {0, 3},       {0, 3},          { },    {0, 1, 3}
 |      {0, 4},    {0, 1, 4}, {0, 1, 2, 4},    {0, 3, 4},       {0, 4}, {0, 1, 4, 5}, {0, 3, 4, 6},    {0, 4, 7},          { },          { },          { },          { },       {0, 4},    {0, 1, 4}, {0, 1, 2, 4},    {0, 3, 4},    {0, 1, 4}, {0, 1, 4, 5},          { },    {0, 4, 7},    {0, 8, 4},          { },          { },          { },    {0, 3, 4},    {0, 3, 4},    {0, 3, 4},          { },    {0, 1, 4}
 |   {0, 1, 5},    {0, 1, 5},    {1, 2, 5}, {0, 1, 3, 5}, {0, 1, 4, 5},       {1, 5}, {1, 3, 5, 6},    {1, 5, 7},          { },          { },          { },          { },    {0, 1, 5},       {1, 5},    {1, 2, 5}, {0, 1, 3, 5},    {1, 4, 5},       {1, 5},          { },    {1, 5, 7},    {8, 1, 5},          { },          { },          { }, {0, 1, 3, 5}, {0, 1, 3, 5},    {1, 3, 5},          { },       {1, 5}
 |   {0, 3, 6}, {0, 1, 3, 6}, {1, 2, 3, 6},    {0, 3, 6}, {0, 3, 4, 6}, {1, 3, 5, 6},       {3, 6},    {3, 6, 7},          { },          { },          { },          { },    {0, 3, 6},    {1, 3, 6}, {1, 2, 3, 6},    {0, 3, 6}, {1, 3, 4, 6}, {1, 3, 5, 6},          { },    {3, 6, 7},    {8, 3, 6},          { },          { },          { },    {0, 3, 6},    {0, 3, 6},       {3, 6},          { },    {1, 3, 6}
 |      {0, 7},    {0, 1, 7},    {1, 2, 7},    {0, 3, 7},    {0, 4, 7},    {1, 5, 7},    {3, 6, 7},          {7},          { },          { },          { },          { },       {0, 7},       {1, 7},    {1, 2, 7},    {0, 3, 7},    {1, 4, 7},    {1, 5, 7},          { },          {7},       {8, 7},          { },          { },          { },    {0, 3, 7},    {0, 3, 7},       {3, 7},          { },       {1, 7}
 |         { },          { },          { },          { },          { },          { },          { },          { },          { },          { },          { },          { },          { },          { },          { },          { },          { },          { },          { },          { },          { },          { },          { },          { },          { },          { },          { },          { },          { }
 |         { },          { },          { },          { },          { },          { },          { },          { },          { },          { },          { },          { },          { },          { },          { },          { },          { },          { },          { },          { },          { },          { },          { },          { },          { },          { },          { },          { },          { }
 |         { },          { },          { },          { },          { },          { },          { },          { },          { },          { },          { },          { },          { },          { },          { },          { },          { },          { },          { },          { },          { },          { },          { },          { },          { },          { },          { },          { },          { }
 |         { },          { },          { },          { },          { },          { },          { },          { },          { },          { },          { },          { },          { },          { },          { },          { },          { },          { },          { },          { },          { },          { },          { },          { },          { },          { },          { },          { },          { }
 |         {0},       {0, 1},    {0, 1, 2},       {0, 3},       {0, 4},    {0, 1, 5},    {0, 3, 6},       {0, 7},          { },          { },          { },          { },          {0},       {0, 1},    {0, 1, 2},       {0, 3},    {0, 1, 4},    {0, 1, 5},          { },       {0, 7},       {0, 8},          { },          { },          { },       {0, 3},       {0, 3},       {0, 3},          { },       {0, 1}
 |      {0, 1},       {0, 1},       {1, 2},    {0, 1, 3},    {0, 1, 4},       {1, 5},    {1, 3, 6},       {1, 7},          { },          { },          { },          { },       {0, 1},          {1},       {1, 2},    {0, 1, 3},       {1, 4},       {1, 5},          { },       {1, 7},       {8, 1},          { },          { },          { },    {0, 1, 3},    {0, 1, 3},       {1, 3},          { },          {1}
 |   {0, 1, 2},    {0, 1, 2},       {1, 2}, {0, 1, 2, 3}, {0, 1, 2, 4},    {1, 2, 5}, {1, 2, 3, 6},    {1, 2, 7},          { },          { },          { },          { },    {0, 1, 2},       {1, 2},       {1, 2}, {0, 1, 2, 3},    {1, 2, 4},    {1, 2, 5},          { },    {1, 2, 7},    {8, 1, 2},          { },          { },          { }, {0, 1, 2, 3}, {0, 1, 2, 3},    {1, 2, 3},          { },       {1, 2}
 |      {0, 3},    {0, 1, 3}, {0, 1, 2, 3},       {0, 3},    {0, 3, 4}, {0, 1, 3, 5},    {0, 3, 6},    {0, 3, 7},          { },          { },          { },          { },       {0, 3},    {0, 1, 3}, {0, 1, 2, 3},       {0, 3}, {0, 1, 3, 4}, {0, 1, 3, 5},          { },    {0, 3, 7},    {0, 8, 3},          { },          { },          { },       {0, 3},       {0, 3},       {0, 3},          { },    {0, 1, 3}
 |   {0, 1, 4},    {0, 1, 4},    {1, 2, 4}, {0, 1, 3, 4},    {0, 1, 4},    {1, 4, 5}, {1, 3, 4, 6},    {1, 4, 7},          { },          { },          { },          { },    {0, 1, 4},       {1, 4},    {1, 2, 4}, {0, 1, 3, 4},       {1, 4},    {1, 4, 5},          { },    {1, 4, 7},    {8, 1, 4},          { },          { },          { }, {0, 1, 3, 4}, {0, 1, 3, 4},    {1, 3, 4},          { },       {1, 4}
 |   {0, 1, 5},    {0, 1, 5},    {1, 2, 5}, {0, 1, 3, 5}, {0, 1, 4, 5},       {1, 5}, {1, 3, 5, 6},    {1, 5, 7},          { },          { },          { },          { },    {0, 1, 5},       {1, 5},    {1, 2, 5}, {0, 1, 3, 5},    {1, 4, 5},       {1, 5},          { },    {1, 5, 7},    {8, 1, 5},          { },          { },          { }, {0, 1, 3, 5}, {0, 1, 3, 5},    {1, 3, 5},          { },       {1, 5}
 |         { },          { },          { },          { },          { },          { },          { },          { },          { },          { },          { },          { },          { },          { },          { },          { },          { },          { },          { },          { },          { },          { },          { },          { },          { },          { },          { },          { },          { }
 |      {0, 7},    {0, 1, 7},    {1, 2, 7},    {0, 3, 7},    {0, 4, 7},    {1, 5, 7},    {3, 6, 7},          {7},          { },          { },          { },          { },       {0, 7},       {1, 7},    {1, 2, 7},    {0, 3, 7},    {1, 4, 7},    {1, 5, 7},          { },          {7},       {8, 7},          { },          { },          { },    {0, 3, 7},    {0, 3, 7},       {3, 7},          { },       {1, 7}
 |      {8, 0},    {8, 0, 1},    {8, 1, 2},    {8, 0, 3},    {8, 0, 4},    {8, 1, 5},    {8, 3, 6},       {8, 7},          { },          { },          { },          { },       {8, 0},       {8, 1},    {8, 1, 2},    {8, 0, 3},    {8, 1, 4},    {8, 1, 5},          { },       {8, 7},          {8},          { },          { },          { },    {8, 0, 3},    {8, 0, 3},       {8, 3},          { },       {8, 1}
 |         { },          { },          { },          { },          { },          { },          { },          { },          { },          { },          { },          { },          { },          { },          { },          { },          { },          { },          { },          { },          { },          { },          { },          { },          { },          { },          { },          { },          { }
 |         { },          { },          { },          { },          { },          { },          { },          { },          { },          { },          { },          { },          { },          { },          { },          { },          { },          { },          { },          { },          { },          { },          { },          { },          { },          { },          { },          { },          { }
 |         { },          { },          { },          { },          { },          { },          { },          { },          { },          { },          { },          { },          { },          { },          { },          { },          { },          { },          { },          { },          { },          { },          { },          { },          { },          { },          { },          { },          { }
 |      {0, 3},    {0, 1, 3}, {0, 1, 2, 3},       {0, 3},    {0, 3, 4}, {0, 1, 3, 5},    {0, 3, 6},    {0, 3, 7},          { },          { },          { },          { },       {0, 3},    {0, 1, 3}, {0, 1, 2, 3},       {0, 3}, {0, 1, 3, 4}, {0, 1, 3, 5},          { },    {0, 3, 7},    {0, 8, 3},          { },          { },          { },       {0, 3},       {0, 3},       {0, 3},          { },    {0, 1, 3}
 |      {0, 3},    {0, 1, 3}, {0, 1, 2, 3},       {0, 3},    {0, 3, 4}, {0, 1, 3, 5},    {0, 3, 6},    {0, 3, 7},          { },          { },          { },          { },       {0, 3},    {0, 1, 3}, {0, 1, 2, 3},       {0, 3}, {0, 1, 3, 4}, {0, 1, 3, 5},          { },    {0, 3, 7},    {0, 8, 3},          { },          { },          { },       {0, 3},       {0, 3},       {0, 3},          { },    {0, 1, 3}
 |      {0, 3},    {0, 1, 3},    {1, 2, 3},       {0, 3},    {0, 3, 4},    {1, 3, 5},       {3, 6},       {3, 7},          { },          { },          { },          { },       {0, 3},       {1, 3},    {1, 2, 3},       {0, 3},    {1, 3, 4},    {1, 3, 5},          { },       {3, 7},       {8, 3},          { },          { },          { },       {0, 3},       {0, 3},          {3},          { },       {1, 3}
 |         { },          { },          { },          { },          { },          { },          { },          { },          { },          { },          { },          { },          { },          { },          { },          { },          { },          { },          { },          { },          { },          { },          { },          { },          { },          { },          { },          { },          { }
 |      {0, 1},       {0, 1},       {1, 2},    {0, 1, 3},    {0, 1, 4},       {1, 5},    {1, 3, 6},       {1, 7},          { },          { },          { },          { },       {0, 1},          {1},       {1, 2},    {0, 1, 3},       {1, 4},       {1, 5},          { },       {1, 7},       {8, 1},          { },          { },          { },    {0, 1, 3},    {0, 1, 3},       {1, 3},          { },          {1}
|];
